(set-logic QF_S)
(declare-fun var0 () String)
(declare-fun var1 () String)
(declare-fun var2 () String)
(declare-fun var3 () String)
(declare-fun var4 () Int)
(declare-fun var5 () Int)
(declare-fun var6 () Int)
(declare-fun var7 () Int)
(assert (< (str.len var0) (str.len var1)))
(assert (> (str.len var2) (str.len var3)))
(assert (str.contains (str.substr var3 var4 var5) (str.substr var2 var6 var7)))
(assert (str.prefixof (str.substr var0 var5 var7) (str.replace var1 var3 var1)))
(check-sat)